\* Source Pyomo model name=C2 *\

min 
x1:
+2.3153507756425097e-07 x2
+0.0001261431725007884 x3

s.t.

c_e_x4_:
+1 x5
+1 x6
-1 x7
-1 x8
= -1150

c_e_x9_:
+1 x10
+1 x11
-1 x12
+0.95 x8
-1 x13
= 0

c_e_x14_:
+1 x15
+1 x16
-1 x17
+0.95 x13
-1 x18
= 0

c_e_x19_:
+1 x20
-1 x6
+1 x21
+0.5 x7
-1 x22
-1 x23
= -1700

c_e_x24_:
+1 x25
-1 x11
+1 x26
+0.5 x12
-1 x27
+0.95 x23
-1 x28
= 0

c_e_x29_:
+1 x30
-1 x16
+1 x31
+0.5 x17
-1 x32
+0.95 x28
-1 x33
= 0

c_e_x34_:
+1 x35
-1 x21
+0.5 x22
-1 x36
= -2400

c_e_x37_:
+1 x38
-1 x26
+0.5 x27
+0.9 x36
-1 x39
= 0

c_e_x40_:
+1 x41
-1 x31
+0.5 x32
+0.9 x39
-1 x42
= 0

c_e_x43_:
+1 x8
-1 x44
+1 x45
+0.5 x46
= 1250

c_e_x47_:
+1 x13
-1 x48
+1 x49
+0.5 x50
= 1800

c_e_x51_:
+1 x18
-1 x52
+1 x53
+0.5 x54
= 2500

c_e_x55_:
+1 x23
-1 x56
+1 x57
+0.5 x58
= 1600

c_e_x59_:
+1 x28
-1 x60
+1 x61
+0.5 x62
= 2250

c_e_x63_:
+1 x33
-1 x64
+1 x65
+0.5 x66
= 3000

c_e_x67_:
+1 x36
-1 x68
+1 x69
+0.5 x70
= 1200

c_e_x71_:
+1 x39
-1 x72
+1 x73
+0.5 x74
= 750

c_e_x75_:
+1 x42
-1 x76
+1 x77
+0.5 x78
= 0

c_u_x79_:
+1 x5
<= 600

c_u_x80_:
+1 x10
<= 600

c_u_x81_:
+1 x15
<= 600

c_u_x82_:
+1 x20
<= 900

c_u_x83_:
+1 x25
<= 900

c_u_x84_:
+1 x30
<= 900

c_u_x85_:
+1 x35
<= 500

c_u_x86_:
+1 x38
<= 500

c_u_x87_:
+1 x41
<= 500

c_u_x88_:
+1 x21
<= 300

c_u_x89_:
+1 x26
<= 300

c_u_x90_:
+1 x31
<= 300

c_u_x91_:
+1 x6
<= 340.0

c_u_x92_:
+1 x11
-0.2 x23
<= 0

c_u_x93_:
+1 x16
-0.2 x28
<= 0

c_u_x94_:
+1 x45
+1 x57
+1 x69
<= 175

c_u_x95_:
+1 x49
+1 x61
+1 x73
<= 175

c_u_x96_:
+1 x53
+1 x65
+1 x77
<= 175

c_u_x97_:
+1 x46
+1 x58
+1 x70
<= 80

c_u_x98_:
+1 x50
+1 x62
+1 x74
<= 80

c_u_x99_:
+1 x54
+1 x66
+1 x78
<= 80

c_e_x100_:
+1 x2
-650 x5
-650 x10
-650 x15
-550 x20
-550 x25
-550 x30
-450 x35
-450 x38
-450 x41
-300 x6
-300 x11
-300 x16
-400 x21
-400 x26
-400 x31
-500 x44
-500 x48
-500 x52
-500 x56
-500 x60
-500 x64
-200 x68
-200 x72
-200 x76
-1200 x45
-1200 x49
-1200 x53
-1100 x57
-1100 x61
-1100 x65
-1000 x69
-1000 x73
-1000 x77
-550 x46
-550 x50
-550 x54
-400 x58
-400 x62
-400 x66
-350 x70
-350 x74
-350 x78
= 0

c_e_x101_:
+1 x3
-1 x44
-1 x48
-1 x52
-1 x56
-1 x60
-1 x64
-1 x68
-1 x72
-1 x76
= 0

bounds
   0.0 <= x2 <= +inf
   0.0 <= x3 <= +inf
   0.0 <= x5 <= +inf
   0.0 <= x10 <= +inf
   0.0 <= x15 <= +inf
   0.0 <= x20 <= +inf
   0.0 <= x25 <= +inf
   0.0 <= x30 <= +inf
   0.0 <= x35 <= +inf
   0.0 <= x38 <= +inf
   0.0 <= x41 <= +inf
   0.0 <= x6 <= +inf
   0.0 <= x11 <= +inf
   0.0 <= x16 <= +inf
   0.0 <= x21 <= +inf
   0.0 <= x26 <= +inf
   0.0 <= x31 <= +inf
   0.0 <= x7 <= +inf
   0.0 <= x12 <= +inf
   0.0 <= x17 <= +inf
   0.0 <= x22 <= +inf
   0.0 <= x27 <= +inf
   0.0 <= x32 <= +inf
   0.0 <= x8 <= +inf
   0.0 <= x13 <= +inf
   0.0 <= x18 <= +inf
   0.0 <= x23 <= +inf
   0.0 <= x28 <= +inf
   0.0 <= x33 <= +inf
   0.0 <= x36 <= +inf
   0.0 <= x39 <= +inf
   0.0 <= x42 <= +inf
   0.0 <= x44 <= +inf
   0.0 <= x48 <= +inf
   0.0 <= x52 <= +inf
   0.0 <= x56 <= +inf
   0.0 <= x60 <= +inf
   0.0 <= x64 <= +inf
   0.0 <= x68 <= +inf
   0.0 <= x72 <= +inf
   0.0 <= x76 <= +inf
   0.0 <= x45 <= +inf
   0.0 <= x49 <= +inf
   0.0 <= x53 <= +inf
   0.0 <= x57 <= +inf
   0.0 <= x61 <= +inf
   0.0 <= x65 <= +inf
   0.0 <= x69 <= +inf
   0.0 <= x73 <= +inf
   0.0 <= x77 <= +inf
   0.0 <= x46 <= +inf
   0.0 <= x50 <= +inf
   0.0 <= x54 <= +inf
   0.0 <= x58 <= +inf
   0.0 <= x62 <= +inf
   0.0 <= x66 <= +inf
   0.0 <= x70 <= +inf
   0.0 <= x74 <= +inf
   0.0 <= x78 <= +inf
end
